NAME: random-17-11965
TYPE: TSP
COMMENT: size=17 seed=11965
DIMENSION: 36
EDGE_WEIGHT_TYPE: EUC_2D
NODE_COORD_SECTION
+0 755 554
-0 755 554
+1 472 987
-1 346 336
+2 526 784
-2 164 767
+3 306 319
-3 22 356
+4 145 961
-4 811 627
+5 630 686
-5 776 101
+6 172 657
-6 835 142
+7 321 592
-7 128 97
+8 500 806
-8 521 76
+9 592 435
-9 256 228
+10 270 348
-10 283 829
+11 660 682
-11 641 320
+12 696 518
-12 328 393
+13 152 977
-13 814 26
+14 473 360
-14 384 967
+15 602 398
-15 266 561
+16 130 375
-16 757 725
+17 687 691
-17 40 53
PRECEDENCE_SECTION
+0 -0
+1 -1
+2 -2
+3 -3
+4 -4
+5 -5
+6 -6
+7 -7
+8 -8
+9 -9
+10 -10
+11 -11
+12 -12
+13 -13
+14 -14
+15 -15
+16 -16
+17 -17
EOF
